500
1000
700
700
699
699
697
697
695
695
694
692
690
688
687
687
685
683
683
683
682
682
681
681
678
678
676
674
674
673
672
670
670
670
669
668
668
667
665
664
664
663
663
663
662
660
659
659
656
656
656
655
655
654
654
653
652
652
651
651
651
649
649
648
648
647
647
646
646
643
641
640
638
635
635
635
634
632
631
630
629
629
628
628
628
624
623
622
621
620
620
620
617
616
615
614
614
611
611
610
608
607
604
603
603
602
600
600
599
599
597
596
596
595
595
595
594
593
593
592
592
591
589
589
589
588
587
586
582
582
581
581
580
578
576
574
573
572
571
570
570
569
569
568
568
568
562
562
562
562
560
557
557
556
556
555
555
554
553
553
553
552
550
549
548
547
543
542
542
541
540
540
539
536
536
535
532
531
530
530
529
529
527
525
524
523
523
521
520
520
519
519
519
518
518
517
517
517
516
516
515
515
514
514
513
513
512
511
510
510
509
508
506
505
504
503
502
501
500
500
500
497
497
496
496
493
493
486
483
482
481
480
478
477
477
476
476
475
473
471
468
468
468
467
463
463
462
462
462
462
461
459
459
459
458
458
457
457
456
455
455
455
453
453
452
450
448
445
445
442
442
442
437
437
435
433
433
432
430
429
429
429
429
428
428
426
426
421
421
420
420
419
419
417
417
417
415
415
414
413
413
412
411
410
410
408
408
407
407
406
405
404
402
398
397
395
394
393
391
388
386
385
385
385
383
383
380
380
380
379
378
378
377
377
375
374
372
368
367
366
365
364
363
361
360
359
358
357
356
356
353
352
351
351
347
347
347
345
344
343
342
342
341
341
340
338
338
338
337
336
336
335
334
332
332
332
330
329
329
327
326
325
325
324
323
321
321
320
319
319
317
317
316
316
316
315
312
311
311
310
310
309
308
308
308
307
306
305
305
302
302
301
300
300
299
296
295
295
291
286
283
282
281
281
281
281
280
278
277
275
275
275
274
271
269
268
266
265
265
264
262
262
261
261
261
260
260
257
256
255
252
252
252
249
249
246
242
242
241
241
241
240
239
235
234
233
233
232
232
232
230
230
229
229
229
227
227
226
226
225
224
222
222
220
219
218
218
215
214
214
211
210
209
208
205
204
204
203
203
203
202
200
